Ca2 N1
1.0
3.537074 0.051133 5.740763
1.665193 3.120999 5.740763
0.083858 0.051133 6.742420
Ca N
2 1
direct
0.731317 0.731317 0.731317 Ca
0.268683 0.268683 0.268683 Ca
0.000000 0.000000 -0.000000 N
