Xsu8 Xs8 Xmcu1 Xsd6 Xmcd8
1.0
   3.5370740000000001    0.0511330000000000    5.7407630000000003
   1.6651929999999999    3.1209989999999999    5.7407630000000003
   0.0838580000000000    0.0511330000000000    6.7424200000000001
Xsu Xs Xsu Xmcu Xs Xsd Xmcd
6 2 2 1 6 6 8
direct
   0.9166670000000000    0.6500000000000000    0.6666670000000000 Xsu0+
   0.6500000000000000    0.6666670000000000    0.9166670000000000 Xsu0+
   0.6500000000000000    0.9166670000000000    0.6666670000000000 Xsu0+
   0.3333330000000000    0.0833330000000000    0.3500000000000000 Xsu0+
   0.3333330000000000    0.3500000000000000    0.0833330000000000 Xsu0+
   0.0833330000000000    0.3333330000000000    0.3500000000000000 Xsu0+
   0.3000000000000000    0.3000000000000000    0.3000000000000000 Xs0+
   0.7000000000000000    0.7000000000000000    0.7000000000000000 Xs0+
   0.6666670000000000    0.6666670000000000    0.7833329999999999 Xsu0+
   0.2166670000000000    0.3333330000000000    0.3333330000000000 Xsu0+
   0.5000000000000000    0.5000000000000000    0.5000000000000000 Xmcu0+
   0.8000000000000000    0.0500000000000000    0.1666670000000000 Xs0+
   0.8333330000000000    0.9500000000000000    0.2000000000000000 Xs0+
   0.8333330000000000    0.2000000000000000    0.9500000000000000 Xs0+
   0.2000000000000000    0.8333330000000000    0.9500000000000000 Xs0+
   0.0500000000000000    0.8000000000000000    0.1666670000000000 Xs0+
   0.0500000000000000    0.1666670000000000    0.8000000000000000 Xs0+
   0.9166670000000000    0.6333330000000000    0.6333330000000000 Xsd0+
   0.0666670000000000    0.3500000000000000    0.3500000000000000 Xsd0+
   0.3500000000000000    0.3500000000000000    0.0666670000000000 Xsd0+
   0.3500000000000000    0.0666670000000000    0.3500000000000000 Xsd0+
   0.6333330000000000    0.6333330000000000    0.9166670000000000 Xsd0+
   0.6333330000000000    0.9166670000000000    0.6333330000000000 Xsd0+
   0.5500000000000000    0.5500000000000000    0.4000000000000000 Xmcd0+
   0.4500000000000000    0.4500000000000000    0.6000000000000000 Xmcd0+
   0.4000000000000000    0.5500000000000000    0.5500000000000000 Xmcd0+
   0.5500000000000000    0.4000000000000000    0.5500000000000000 Xmcd0+
   0.4500000000000000    0.6000000000000000    0.4500000000000000 Xmcd0+
   0.6000000000000000    0.4500000000000000    0.4500000000000000 Xmcd0+
   0.8333330000000000    0.8500000000000000    0.8500000000000000 Xmcd0+
   0.1333330000000000    0.1333330000000000    0.1500000000000000 Xmcd0+
