Global Parameters
ISTART =  1            (Read existing wavefunction, if there)
ISPIN  =  2            (Non-Spin polarised DFT)
ALGO = All
# ICHARG =  11         (Non-self-consistent: GGA/LDA band structures)
LREAL  = .FALSE.       (Projection operators: automatic)
# ENCUT  =  400        (Cut-off energy for plane wave basis set, in eV)
# PREC   =  Accurate   (Precision level: Normal or Accurate, set Accurate when perform structure lattice relaxation calculation)
LWAVE  = .TRUE.        (Write WAVECAR or not)
LASPH  = .TRUE.        (Give more accurate total energies and band structure calculations)
PREC   = Accurate      (Accurate strictly avoids any aliasing or wrap around errors)
# LVTOT  = .TRUE.      (Write total electrostatic potential into LOCPOT or not)
# LVHAR  = .TRUE.      (Write ionic + Hartree electrostatic potential into LOCPOT or not)
# NELECT =             (No. of electrons: charged cells, be careful)
# LPLANE = .TRUE.      (Real space distribution, supercells)
# NWRITE = 2           (Medium-level output)
# KPAR   = 2           (Divides k-grid into separate groups)
NGXF    = 257        (FFT grid mesh density for nice charge/potential plots)
NGYF    = 257        (FFT grid mesh density for nice charge/potential plots)
NGZF    = 257       (FFT grid mesh density for nice charge/potential plots)
NGX = 257
NGY = 257
NGZ = 257
 
Static Calculation
ISMEAR =  0            (gaussian smearing method)
SIGMA  =  0.05         (please check the width of the smearing)
NELM   =  60           (Max electronic SCF steps)
EDIFF  =  1E-06        (SCF energy convergence, in eV)
 
Bader Charge Analysis
LAECHG     = .TRUE.    (Write core charge into CHGCAR file)
LCHARG     = .TRUE.    (Write CHGCAR file)
 
Electron Localization Function
ISTART =  1            (Read existing wavefunction, if there)
LELF   = .TRUE.        (Activate ELF)
 
