H2 O1
1.0
   8.0399952097298932    0.0000000000000000    0.0000000000000000
   0.0000000000000000    8.0399952097298932    0.0000000000000000
   0.0000000000000000    0.0000000000000000    8.0399952097298932
H O H
1 1 1
direct
   0.0000000000000000    0.0941481192905678    0.0647742251580605 H
   0.0000000000000000    0.0000000000000000   -0.0080967452357075 O
   0.0000000000000000   -0.0941481192905678    0.0647742251580605 H
